17	4	3
15	21	21	22	32	28	26	
0	0	0	0	0	9	9	8	9	9	9	3	2	3	4
6	0	0	8	1	2	5	2	2	7	9	3	5	8	17
1	0	8	6	5	10	7	9	5	4	3	3	8	14	17
2	9	2	0	5	8	8	10	8	5	3	3	6	9	13
9	0	3	0	3	8	9	6	4	6	1	2	7	17
200	0	0	0	1	9	5	9	6	3	7	3	7	11	17
125	0	3	0	9	5	4	2	6	5	8	1	14
125	0	7	5	0	5	5	4	3	9	8	3	10	12	16
150	0	0	0	7	5	7	5	5	4	10	2	17	17
100	8	9	1	3	7	2	8	2	5	3	2	13	17
200	0	10	0	3	2	4	7	10	10	10	2	16	17
100	0	0	0	8	7	4	3	8	9	8	2	15	17
10	0	2	5	0	5	4	2	9	6	1	1	17
9	0	0	9	0	7	1	8	1	5	1	1	17
2	0	0	0	4	10	2	3	8	4	8	1	17
7	8	0	1	2	10	6	1	7	6	1	1	17
0	0	0	0	0	6	2	4	9	9	3	0
